c nIsolatedPIs 0
c maxPI 32
p cnf 95 190
c gate 33 3 -19 0
3 -33 0
-19 -33 0
-3 19 33 0
c gate 34 -2 18 0
-2 -34 0
18 -34 0
2 -18 34 0
c gate 35 2 -18 0
2 -35 0
-18 -35 0
-2 18 35 0
c gate 36 -1 17 0
-1 -36 0
17 -36 0
1 -17 36 0
c gate 37 -35 36 0
-35 -37 0
36 -37 0
35 -36 37 0
c gate 38 -34 -37 0
-34 -38 0
-37 -38 0
34 37 38 0
c gate 39 -33 -38 0
-33 -39 0
-38 -39 0
33 38 39 0
c gate 40 -4 20 0
-4 -40 0
20 -40 0
4 -20 40 0
c gate 41 -3 19 0
-3 -41 0
19 -41 0
3 -19 41 0
c gate 42 -40 -41 0
-40 -42 0
-41 -42 0
40 41 42 0
c gate 43 -39 42 0
-39 -43 0
42 -43 0
39 -42 43 0
c gate 44 4 -20 0
4 -44 0
-20 -44 0
-4 20 44 0
c gate 45 5 -21 0
5 -45 0
-21 -45 0
-5 21 45 0
c gate 46 -44 -45 0
-44 -46 0
-45 -46 0
44 45 46 0
c gate 47 -43 46 0
-43 -47 0
46 -47 0
43 -46 47 0
c gate 48 -6 22 0
-6 -48 0
22 -48 0
6 -22 48 0
c gate 49 -5 21 0
-5 -49 0
21 -49 0
5 -21 49 0
c gate 50 -48 -49 0
-48 -50 0
-49 -50 0
48 49 50 0
c gate 51 -47 50 0
-47 -51 0
50 -51 0
47 -50 51 0
c gate 52 6 -22 0
6 -52 0
-22 -52 0
-6 22 52 0
c gate 53 7 -23 0
7 -53 0
-23 -53 0
-7 23 53 0
c gate 54 -52 -53 0
-52 -54 0
-53 -54 0
52 53 54 0
c gate 55 -51 54 0
-51 -55 0
54 -55 0
51 -54 55 0
c gate 56 -8 -24 0
-8 -56 0
-24 -56 0
8 24 56 0
c gate 57 8 24 0
8 -57 0
24 -57 0
-8 -24 57 0
c gate 58 -56 -57 0
-56 -58 0
-57 -58 0
56 57 58 0
c gate 59 -7 23 0
-7 -59 0
23 -59 0
7 -23 59 0
c gate 60 -58 -59 0
-58 -60 0
-59 -60 0
58 59 60 0
c gate 61 -55 60 0
-55 -61 0
60 -61 0
55 -60 61 0
c gate 62 8 -24 0
8 -62 0
-24 -62 0
-8 24 62 0
c gate 63 -15 -31 0
-15 -63 0
-31 -63 0
15 31 63 0
c gate 64 15 31 0
15 -64 0
31 -64 0
-15 -31 64 0
c gate 65 -63 -64 0
-63 -65 0
-64 -65 0
63 64 65 0
c gate 66 16 -32 0
16 -66 0
-32 -66 0
-16 32 66 0
c gate 67 -16 32 0
-16 -67 0
32 -67 0
16 -32 67 0
c gate 68 -66 -67 0
-66 -68 0
-67 -68 0
66 67 68 0
c gate 69 -65 68 0
-65 -69 0
68 -69 0
65 -68 69 0
c gate 70 -14 -30 0
-14 -70 0
-30 -70 0
14 30 70 0
c gate 71 14 30 0
14 -71 0
30 -71 0
-14 -30 71 0
c gate 72 -70 -71 0
-70 -72 0
-71 -72 0
70 71 72 0
c gate 73 13 29 0
13 -73 0
29 -73 0
-13 -29 73 0
c gate 74 -13 -29 0
-13 -74 0
-29 -74 0
13 29 74 0
c gate 75 -73 -74 0
-73 -75 0
-74 -75 0
73 74 75 0
c gate 76 -12 -28 0
-12 -76 0
-28 -76 0
12 28 76 0
c gate 77 12 28 0
12 -77 0
28 -77 0
-12 -28 77 0
c gate 78 -76 -77 0
-76 -78 0
-77 -78 0
76 77 78 0
c gate 79 -75 -78 0
-75 -79 0
-78 -79 0
75 78 79 0
c gate 80 -72 79 0
-72 -80 0
79 -80 0
72 -79 80 0
c gate 81 69 80 0
69 -81 0
80 -81 0
-69 -80 81 0
c gate 82 -62 -81 0
-62 -82 0
-81 -82 0
62 81 82 0
c gate 83 -10 -26 0
-10 -83 0
-26 -83 0
10 26 83 0
c gate 84 10 26 0
10 -84 0
26 -84 0
-10 -26 84 0
c gate 85 -83 -84 0
-83 -85 0
-84 -85 0
83 84 85 0
c gate 86 11 27 0
11 -86 0
27 -86 0
-11 -27 86 0
c gate 87 -11 -27 0
-11 -87 0
-27 -87 0
11 27 87 0
c gate 88 -86 -87 0
-86 -88 0
-87 -88 0
86 87 88 0
c gate 89 9 25 0
9 -89 0
25 -89 0
-9 -25 89 0
c gate 90 -9 -25 0
-9 -90 0
-25 -90 0
9 25 90 0
c gate 91 -89 -90 0
-89 -91 0
-90 -91 0
89 90 91 0
c gate 92 -88 -91 0
-88 -92 0
-91 -92 0
88 91 92 0
c gate 93 -85 92 0
-85 -93 0
92 -93 0
85 -92 93 0
c gate 94 -82 93 0
-82 -94 0
93 -94 0
82 -93 94 0
c gate 95 61 94 0
61 -95 0
94 -95 0
-61 -94 95 0
c PO
95 0
